554.0
550.0
561.0
561.0
539.0
542.0
544.0
545.0
560.0
555.0
549.0
553.0
565.0
555.0
553.0
542.0
553.0
553.0
556.0
561.0
547.0
557.0
577.0
546.0
559.0
555.0
556.0
550.0
558.0
554.0
541.0
553.0
549.0
575.0
556.0
543.0
569.0
554.0
548.0
554.0
543.0
557.0
556.0
553.0
540.0
558.0
560.0
549.0
558.0
548.0
550.0
553.0
566.0
554.0
551.0
544.0
555.0
551.0
545.0
551.0
563.0
548.0
536.0
571.0
560.0
549.0
546.0
541.0
546.0
548.0
543.0
558.0
552.0
567.0
551.0
565.0
553.0
567.0
539.0
572.0
554.0
556.0
543.0
548.0
560.0
540.0
548.0
550.0
548.0
553.0
551.0
548.0
552.0
554.0
539.0
544.0
548.0
550.0
533.0
556.0
